p wcnf 12696011 13 21
21 -12696000 12696006 0
21 -12696000 12696008 0
21 -12696004 12696006 0
21 -12696004 12696008 0
3 12696000 0
3 12696004 0
2 -12696005 0
2 -12696006 0
2 -12696007 0
2 -12696008 0
2 -12696009 0
2 -12696010 0
2 -12696011 0
